
se = 80; % nombre de sessions
gr = 40; % nombre de grups de treball
cl = 12; % nombre de slots
minPapersPerSlot = 3; % minim nombre d'articles per sessio i slot
maxSesionsPar = 20; % maxim nombre de sessions paraleles

npMax = [4, 5, 4, 5, 5, 3, 3, 6, 5, 4, 4, 3]; % nombre maxim de papers per slot

np = [4, 17, 6, 5, 13, 4, 5, 11, 17, 9, 8, 3, 3, 15, 6, 8, 16, 8, 5, 5, 12, 3, 3, 3, 3, 13, 7, 12, 3, 5, 12, 17, 10, 13, 5, 4, 7, 3, 13, 7, 5, 9, 5, 17, 5, 3, 3, 3, 14, 11, 3, 11, 7, 8, 3, 13, 4, 7, 12, 12, 11, 4, 13, 12, 15, 19, 12, 17, 15, 8, 8, 17, 3, 11, 13, 15, 14, 9, 3, 17]; % nombre de papers acceptats a cada sessio

WG = [ {1}, {}, {2,3,4}, {}, {5}, {6}, {}, {}, {7}, {}, {8}, {9}, {10,11}, {12,13,14}, {}, {}, {15}, {16}, {17,18,19}, {20}, {21}, {22}, {23}, {24}, {25}, {26}, {27}, {28}, {29}, {30}, {31,32}, {33}, {34}, {35}, {}, {36,37,38}, {}, {39}, {40,1}, {2}, {3}, {4}, {}, {}, {5}, {6}, {7}, {}, {8}, {9}, {10}, {11,12}, {13,14}, {15}, {}, {16,17,18}, {19}, {20}, {}, {}, {}, {21}, {}, {22}, {23}, {}, {24}, {25}, {26}, {27}, {28}, {}, {}, {}, {29}, {}, {30}, {}, {31}, {32} ]; % grups per sessio

